TCS_Benchmarks/redos_fix/corpus1_output_distinct_201_200_56_0.smt2
(set-logic QF_S)
(declare-const x String)
(assert (str.in.re x (re.inter  (re.++ (re.* (re.union (re.range "\u{00}" "\u{09}") (re.range "\u{0b}" "\u{0c}") (re.range "\u{0e}" "\u{84}") (re.range "\u{86}" "\u{ff}")) ) (re.+ (re.union (re.range "\u{00}" "\u{08}") (re.range "\u{0e}" "\u{1f}") (re.range "\u{21}" "\u{84}") (re.range "\u{86}" "\u{9f}") (re.range "\u{a1}" "\u{ff}")) ))  (re.++ (re.* (re.union (re.range "\u{00}" "\u{09}") (re.range "\u{0b}" "\u{0c}") (re.range "\u{0e}" "\u{84}") (re.range "\u{86}" "\u{ff}")) ) (re.++  (re.++  (str.to.re "\u{6f}") (re.++  (str.to.re "\u{66}") (re.++  (str.to.re "\u{20}") (re.++  (str.to.re "\u{74}") (re.++  (str.to.re "\u{79}") (re.++  (str.to.re "\u{70}") (re.++  (str.to.re "\u{65}") (re.++ (re.* (re.union (re.range "\u{00}" "\u{09}") (re.range "\u{0b}" "\u{0c}") (re.range "\u{0e}" "\u{84}") (re.range "\u{86}" "\u{ff}")) ) (re.++  (str.to.re "\u{6c}") (re.++  (str.to.re "\u{69}") (re.++  (str.to.re "\u{76}") (re.++  (str.to.re "\u{65}") (re.++  (str.to.re "\u{20}") (re.++  (str.to.re "\u{61}") (re.++  (str.to.re "\u{63}") (re.++  (str.to.re "\u{72}") (re.++  (str.to.re "\u{6f}") (re.++  (str.to.re "\u{73}") (re.++  (str.to.re "\u{73}") (re.++  (str.to.re "\u{20}") (re.++  (str.to.re "\u{47}") (re.++  (str.to.re "\u{43}") (re.++  (str.to.re "\u{20}") (re.++  (str.to.re "\u{63}") (re.++  (str.to.re "\u{61}") (re.++  (str.to.re "\u{6c}") (re.++  (str.to.re "\u{6c}") (re.++  (str.to.re "\u{20}") (re.++ (re.opt  (str.to.re "\u{27}") ) (re.++ (re.* (re.union (re.range "\u{00}" "\u{09}") (re.range "\u{0b}" "\u{0c}") (re.range "\u{0e}" "\u{84}") (re.range "\u{86}" "\u{ff}")) ) (re.++ (re.opt  (str.to.re "\u{27}") ) (re.++  (str.to.re "\u{20}") (re.++  (str.to.re "\u{61}") (re.++  (str.to.re "\u{74}")  (str.to.re "\u{20}"))))))))))))))))))))))))))))))))))) (re.+ (re.union (re.range "\u{00}" "\u{08}") (re.range "\u{0e}" "\u{1f}") (re.range "\u{21}" "\u{84}") (re.range "\u{86}" "\u{9f}") (re.range "\u{a1}" "\u{ff}")) ))) )))
(check-sat)
(get-model)