TCS_Benchmarks/redos_fix/corpus1_output_distinct_201_200_56_0.txt
(.*)(\S+)
(.*)(of type.*live across GC call ('?)(.*)('?) at )(\S+)